p tdp 74 73
38 5
67 37
18 11
50 41
69 13
12 14
74 15
26 59
61 17
58 44
9 23
29 45
21 49
9 1
11 71
72 39
70 47
34 24
37 25
24 4
74 44
65 19
65 73
44 40
13 11
56 51
3 57
20 68
6 55
52 48
11 30
47 9
72 26
22 25
63 64
41 8
59 66
21 52
33 36
32 61
24 2
36 1
7 5
39 29
29 56
70 7
12 16
46 64
28 37
2 51
32 22
32 50
27 24
62 64
59 49
43 54
35 73
63 55
54 17
20 31
19 12
17 10
53 42
12 38
52 60
63 29
31 3
58 69
42 50
18 3
52 15
53 12
26 61
